certificates/rado_a15_c26_N61.cnf
c Rad2 upper bound instance: x1 + 15*x2 - x3 = 26, interval [1,61]
p cnf 61 376
1 2 5 0
-1 -2 -5 0
1 3 20 0
-1 -3 -20 0
1 4 35 0
-1 -4 -35 0
1 5 50 0
-1 -5 -50 0
2 6 0
-2 -6 0
2 3 21 0
-2 -3 -21 0
2 4 36 0
-2 -4 -36 0
2 5 51 0
-2 -5 -51 0
2 3 7 0
-2 -3 -7 0
3 22 0
-3 -22 0
3 4 37 0
-3 -4 -37 0
3 5 52 0
-3 -5 -52 0
2 4 8 0
-2 -4 -8 0
3 4 23 0
-3 -4 -23 0
4 38 0
-4 -38 0
4 5 53 0
-4 -5 -53 0
2 5 9 0
-2 -5 -9 0
3 5 24 0
-3 -5 -24 0
4 5 39 0
-4 -5 -39 0
5 54 0
-5 -54 0
2 6 10 0
-2 -6 -10 0
3 6 25 0
-3 -6 -25 0
4 6 40 0
-4 -6 -40 0
5 6 55 0
-5 -6 -55 0
2 7 11 0
-2 -7 -11 0
3 7 26 0
-3 -7 -26 0
4 7 41 0
-4 -7 -41 0
5 7 56 0
-5 -7 -56 0
2 8 12 0
-2 -8 -12 0
3 8 27 0
-3 -8 -27 0
4 8 42 0
-4 -8 -42 0
5 8 57 0
-5 -8 -57 0
2 9 13 0
-2 -9 -13 0
3 9 28 0
-3 -9 -28 0
4 9 43 0
-4 -9 -43 0
5 9 58 0
-5 -9 -58 0
2 10 14 0
-2 -10 -14 0
3 10 29 0
-3 -10 -29 0
4 10 44 0
-4 -10 -44 0
5 10 59 0
-5 -10 -59 0
2 11 15 0
-2 -11 -15 0
3 11 30 0
-3 -11 -30 0
4 11 45 0
-4 -11 -45 0
5 11 60 0
-5 -11 -60 0
1 12 0
-1 -12 0
2 12 16 0
-2 -12 -16 0
3 12 31 0
-3 -12 -31 0
4 12 46 0
-4 -12 -46 0
5 12 61 0
-5 -12 -61 0
1 2 13 0
-1 -2 -13 0
2 13 17 0
-2 -13 -17 0
3 13 32 0
-3 -13 -32 0
4 13 47 0
-4 -13 -47 0
1 3 14 0
-1 -3 -14 0
2 14 18 0
-2 -14 -18 0
3 14 33 0
-3 -14 -33 0
4 14 48 0
-4 -14 -48 0
1 4 15 0
-1 -4 -15 0
2 15 19 0
-2 -15 -19 0
3 15 34 0
-3 -15 -34 0
4 15 49 0
-4 -15 -49 0
1 5 16 0
-1 -5 -16 0
2 16 20 0
-2 -16 -20 0
3 16 35 0
-3 -16 -35 0
4 16 50 0
-4 -16 -50 0
1 6 17 0
-1 -6 -17 0
2 17 21 0
-2 -17 -21 0
3 17 36 0
-3 -17 -36 0
4 17 51 0
-4 -17 -51 0
1 7 18 0
-1 -7 -18 0
2 18 22 0
-2 -18 -22 0
3 18 37 0
-3 -18 -37 0
4 18 52 0
-4 -18 -52 0
1 8 19 0
-1 -8 -19 0
2 19 23 0
-2 -19 -23 0
3 19 38 0
-3 -19 -38 0
4 19 53 0
-4 -19 -53 0
1 9 20 0
-1 -9 -20 0
2 20 24 0
-2 -20 -24 0
3 20 39 0
-3 -20 -39 0
4 20 54 0
-4 -20 -54 0
1 10 21 0
-1 -10 -21 0
2 21 25 0
-2 -21 -25 0
3 21 40 0
-3 -21 -40 0
4 21 55 0
-4 -21 -55 0
1 11 22 0
-1 -11 -22 0
2 22 26 0
-2 -22 -26 0
3 22 41 0
-3 -22 -41 0
4 22 56 0
-4 -22 -56 0
1 12 23 0
-1 -12 -23 0
2 23 27 0
-2 -23 -27 0
3 23 42 0
-3 -23 -42 0
4 23 57 0
-4 -23 -57 0
1 13 24 0
-1 -13 -24 0
2 24 28 0
-2 -24 -28 0
3 24 43 0
-3 -24 -43 0
4 24 58 0
-4 -24 -58 0
1 14 25 0
-1 -14 -25 0
2 25 29 0
-2 -25 -29 0
3 25 44 0
-3 -25 -44 0
4 25 59 0
-4 -25 -59 0
1 15 26 0
-1 -15 -26 0
2 26 30 0
-2 -26 -30 0
3 26 45 0
-3 -26 -45 0
4 26 60 0
-4 -26 -60 0
1 16 27 0
-1 -16 -27 0
2 27 31 0
-2 -27 -31 0
3 27 46 0
-3 -27 -46 0
4 27 61 0
-4 -27 -61 0
1 17 28 0
-1 -17 -28 0
2 28 32 0
-2 -28 -32 0
3 28 47 0
-3 -28 -47 0
1 18 29 0
-1 -18 -29 0
2 29 33 0
-2 -29 -33 0
3 29 48 0
-3 -29 -48 0
1 19 30 0
-1 -19 -30 0
2 30 34 0
-2 -30 -34 0
3 30 49 0
-3 -30 -49 0
1 20 31 0
-1 -20 -31 0
2 31 35 0
-2 -31 -35 0
3 31 50 0
-3 -31 -50 0
1 21 32 0
-1 -21 -32 0
2 32 36 0
-2 -32 -36 0
3 32 51 0
-3 -32 -51 0
1 22 33 0
-1 -22 -33 0
2 33 37 0
-2 -33 -37 0
3 33 52 0
-3 -33 -52 0
1 23 34 0
-1 -23 -34 0
2 34 38 0
-2 -34 -38 0
3 34 53 0
-3 -34 -53 0
1 24 35 0
-1 -24 -35 0
2 35 39 0
-2 -35 -39 0
3 35 54 0
-3 -35 -54 0
1 25 36 0
-1 -25 -36 0
2 36 40 0
-2 -36 -40 0
3 36 55 0
-3 -36 -55 0
1 26 37 0
-1 -26 -37 0
2 37 41 0
-2 -37 -41 0
3 37 56 0
-3 -37 -56 0
1 27 38 0
-1 -27 -38 0
2 38 42 0
-2 -38 -42 0
3 38 57 0
-3 -38 -57 0
1 28 39 0
-1 -28 -39 0
2 39 43 0
-2 -39 -43 0
3 39 58 0
-3 -39 -58 0
1 29 40 0
-1 -29 -40 0
2 40 44 0
-2 -40 -44 0
3 40 59 0
-3 -40 -59 0
1 30 41 0
-1 -30 -41 0
2 41 45 0
-2 -41 -45 0
3 41 60 0
-3 -41 -60 0
1 31 42 0
-1 -31 -42 0
2 42 46 0
-2 -42 -46 0
3 42 61 0
-3 -42 -61 0
1 32 43 0
-1 -32 -43 0
2 43 47 0
-2 -43 -47 0
1 33 44 0
-1 -33 -44 0
2 44 48 0
-2 -44 -48 0
1 34 45 0
-1 -34 -45 0
2 45 49 0
-2 -45 -49 0
1 35 46 0
-1 -35 -46 0
2 46 50 0
-2 -46 -50 0
1 36 47 0
-1 -36 -47 0
2 47 51 0
-2 -47 -51 0
1 37 48 0
-1 -37 -48 0
2 48 52 0
-2 -48 -52 0
1 38 49 0
-1 -38 -49 0
2 49 53 0
-2 -49 -53 0
1 39 50 0
-1 -39 -50 0
2 50 54 0
-2 -50 -54 0
1 40 51 0
-1 -40 -51 0
2 51 55 0
-2 -51 -55 0
1 41 52 0
-1 -41 -52 0
2 52 56 0
-2 -52 -56 0
1 42 53 0
-1 -42 -53 0
2 53 57 0
-2 -53 -57 0
1 43 54 0
-1 -43 -54 0
2 54 58 0
-2 -54 -58 0
1 44 55 0
-1 -44 -55 0
2 55 59 0
-2 -55 -59 0
1 45 56 0
-1 -45 -56 0
2 56 60 0
-2 -56 -60 0
1 46 57 0
-1 -46 -57 0
2 57 61 0
-2 -57 -61 0
1 47 58 0
-1 -47 -58 0
1 48 59 0
-1 -48 -59 0
1 49 60 0
-1 -49 -60 0
1 50 61 0
-1 -50 -61 0
