certificates/rado_a15_c26_N61.drat
-55 2 0
44 2 -59 0
-1 -57 -61 0
-57 -61 0
d -57 -2 -61 0
1 2 -61 0
2 -58 -61 0
-2 -59 -61 0
2 -61 0
d 2 -58 -61 0
d 1 2 -61 0
-1 56 -61 0
-12 -61 0
-61 0
-1 -2 0
-2 0
6 0
57 0
-55 0
59 0
51 0
44 0
1 0
-12 0
-17 0
-46 0
-48 0
-40 0
-33 0
5 0
8 0
16 0
21 0
13 0
50 0
4 0
42 0
52 0
36 0
37 0
29 0
-54 0
0
